 vasp.5.4.4.18Apr17-6-g9f103f2a35 (build Nov 10 2019 13:41:14) complex

 executed on             LinuxIFC date 2021.01.11  16:58:39

 INCAR:
 POTCAR:    PAW_PBE Ag 02Apr2005
 POTCAR:    PAW_PBE H 15Jun2001
 POTCAR:    PAW_PBE Ag 02Apr2005
   VRHFIN =Ag : s1 d10

   TITEL  = PAW_PBE Ag 02Apr2005
   POMASS =  107.868; ZVAL   =   11.000    mass and valenz
   ENMAX  =  249.844; ENMIN  =  187.383 eV

 POTCAR:    PAW_PBE H 15Jun2001
   VRHFIN =H: ultrasoft test

   TITEL  = PAW_PBE H 15Jun2001
   POMASS =    1.000; ZVAL   =    1.000    mass and valenz
   ENMAX  =  250.000; ENMIN  =  200.000 eV

  PAW_PBE Ag 02Apr2005                  :
  PAW_PBE H 15Jun2001                   :

 POSCAR: Ag(111) Slab
  positions in direct lattice
  velocities in cartesian coordinates
 exchange correlation table for  LEXCH =        8
   RHO(1)=    0.500       N(1)  =     2000
   RHO(2)=  100.500       N(2)  =     4000

 VTST: version 3.2, (02/03/18)

 CHAIN: initializing optimizer

 OPT: Using VASP Dynamics algorithm
 CHAIN: Read ICHAIN            0

 POSCAR: Ag(111) Slab
  positions in direct lattice
  velocities in cartesian coordinates

 ion  position               nearest neighbor table
   1  0.000  0.000  0.000-   4 1.87   4 1.87   4 1.87   2 2.96   2 2.96   2 2.96
   2  0.333  0.333  0.096-   3 2.90   3 2.90   3 2.90   1 2.96   1 2.96   1 2.96
   3  0.667  0.667  0.189-   2 2.90   2 2.90   2 2.90
   4  0.667  0.667  0.967-   1 1.87   1 1.87   1 1.87

  LATTYP: Found a hexagonal cell.
 ALAT       =     2.8890000000
 C/A-ratio  =     8.8223320334

  Lattice vectors:

 A1 = (   1.4445000000,  -2.5019473915,   0.0000000000)
 A2 = (  -2.8890000000,   0.0000000000,   0.0000000000)
 A3 = (   0.0000000000,   0.0000000000, -25.4877172446)

Analysis of symmetry for initial positions (statically):
 Subroutine PRICEL returns:
 Original cell was already a primitive cell.

 Routine SETGRP: Setting up the symmetry group for a
 hexagonal supercell.

 Subroutine GETGRP returns: Found  6 space group operations
 (whereof  6 operations were pure point group operations)
 out of a pool of 24 trial point group operations.

The static configuration has the point symmetry C_3v.

Analysis of symmetry for dynamics (positions and initial velocities):
 Subroutine PRICEL returns:
 Original cell was already a primitive cell.

[...]

The dynamic configuration has the point symmetry C_3v.

Analysis of constrained symmetry for selective dynamics:
 Subroutine PRICEL returns:
 Original cell was already a primitive cell.

 Routine SETGRP: Setting up the symmetry group for a
 hexagonal supercell.

 Subroutine GETGRP returns: Found  6 space group operations
 (whereof  6 operations were pure point group operations)
 out of a pool of 24 trial point group operations.

The constrained configuration has the point symmetry C_3v.

 Subroutine INISYM returns: Found  6 space group operations
 (whereof  6 operations are pure point group operations),
 and found     1 'primitive' translations

 KPOINTS: K-Points

Automatic generation of k-mesh.
Space group operators:
 irot       det(A)        alpha          n_x          n_y          n_z        tau_x        tau_y        tau_z
    1     1.000000     0.000000     1.000000     0.000000     0.000000     0.000000     0.000000     0.000000
    2     1.000000   120.000000     0.000000     0.000000     1.000000     0.000000     0.000000     0.000000
    3     1.000000   120.000000     0.000000     0.000000    -1.000000     0.000000     0.000000     0.000000
    4    -1.000000   180.000000     0.500000    -0.866025     0.000000     0.000000     0.000000     0.000000
    5    -1.000000   180.000000     1.000000    -0.000000     0.000000     0.000000     0.000000     0.000000
    6    -1.000000   180.000000    -0.500000    -0.866025     0.000000     0.000000     0.000000     0.000000

 Subroutine IBZKPT returns following result:

 Found    217 irreducible k-points:

 Following reciprocal coordinates:
            Coordinates               Weight
  0.000000  0.000000  0.000000      1.000000
  0.020833  0.000000  0.000000      6.000000
  0.041667  0.000000  0.000000      6.000000
  0.062500  0.000000  0.000000      6.000000
  0.083333  0.000000  0.000000      6.000000
  0.104167 -0.000000  0.000000      6.000000
  0.125000  0.000000  0.000000      6.000000
  0.145833  0.000000  0.000000      6.000000
  0.166667  0.000000  0.000000      6.000000
  0.187500  0.000000  0.000000      6.000000
  0.208333  0.000000  0.000000      6.000000
  0.229167  0.000000  0.000000      6.000000
  0.250000  0.000000  0.000000      6.000000
  0.270833 -0.000000  0.000000      6.000000
  0.291667  0.000000  0.000000      6.000000
  0.312500  0.000000  0.000000      6.000000
  0.333333  0.000000  0.000000      6.000000
  0.354167 -0.000000  0.000000      6.000000
  0.375000  0.000000  0.000000      6.000000
  0.395833 -0.000000  0.000000      6.000000
  0.416667  0.000000  0.000000      6.000000
  0.437500  0.000000  0.000000      6.000000
  0.458333  0.000000  0.000000      6.000000
  0.479167 -0.000000  0.000000      6.000000
  0.500000  0.000000  0.000000      3.000000
  0.041667  0.020833  0.000000      6.000000
  0.062500  0.020833  0.000000     12.000000
  0.083333  0.020833  0.000000     12.000000
  0.104167  0.020833  0.000000     12.000000
  0.125000  0.020833  0.000000     12.000000
  0.145833  0.020833  0.000000     12.000000
  0.166667  0.020833  0.000000     12.000000
  0.187500  0.020833  0.000000     12.000000
  0.208333  0.020833  0.000000     12.000000
  0.229167  0.020833  0.000000     12.000000
  0.250000  0.020833  0.000000     12.000000
  0.270833  0.020833  0.000000     12.000000
  0.291667  0.020833  0.000000     12.000000
  0.312500  0.020833  0.000000     12.000000
  0.333333  0.020833  0.000000     12.000000
  0.354167  0.020833  0.000000     12.000000
  0.375000  0.020833  0.000000     12.000000
  0.395833  0.020833  0.000000     12.000000
  0.416667  0.020833  0.000000     12.000000
  0.437500  0.020833  0.000000     12.000000
  0.458333  0.020833  0.000000     12.000000
  0.479167  0.020833  0.000000     12.000000
  0.500000  0.020833  0.000000     12.000000
  0.083333  0.041667  0.000000      6.000000
  0.104167  0.041667  0.000000     12.000000
  0.125000  0.041667  0.000000     12.000000
  0.145833  0.041667  0.000000     12.000000
  0.166667  0.041667  0.000000     12.000000
  0.187500  0.041667  0.000000     12.000000
  0.208333  0.041667  0.000000     12.000000
  0.229167  0.041667  0.000000     12.000000
  0.250000  0.041667  0.000000     12.000000
  0.270833  0.041667  0.000000     12.000000
  0.291667  0.041667  0.000000     12.000000
  0.312500  0.041667  0.000000     12.000000
[...]
 -0.416667  0.250000  0.000000     12.000000
 -0.395833  0.250000  0.000000     12.000000
 -0.375000  0.250000  0.000000      6.000000
 -0.458333  0.270833  0.000000      6.000000
 -0.437500  0.270833  0.000000     12.000000
 -0.416667  0.270833  0.000000     12.000000
 -0.395833  0.270833  0.000000     12.000000
 -0.375000  0.270833  0.000000     12.000000
 -0.416667  0.291667  0.000000      6.000000
 -0.395833  0.291667  0.000000     12.000000
 -0.375000  0.291667  0.000000     12.000000
 -0.354167  0.291667  0.000000      6.000000
 -0.375000  0.312500  0.000000      6.000000
 -0.354167  0.312500  0.000000     12.000000
 -0.333333  0.333333  0.000000      2.000000

 Following cartesian coordinates:
            Coordinates               Weight
  0.000000  0.000000  0.000000      1.000000
  0.007211 -0.004163  0.000000      6.000000
  0.014423 -0.008327  0.000000      6.000000
  0.021634 -0.012490  0.000000      6.000000
  0.028845 -0.016654  0.000000      6.000000
  0.036056 -0.020817  0.000000      6.000000
  0.043268 -0.024981  0.000000      6.000000
  0.050479 -0.029144  0.000000      6.000000
  0.057690 -0.033307  0.000000      6.000000
  0.064901 -0.037471  0.000000      6.000000
  0.072113 -0.041634  0.000000      6.000000
  0.079324 -0.045798  0.000000      6.000000
  0.086535 -0.049961  0.000000      6.000000
  0.093746 -0.054125  0.000000      6.000000
  0.100958 -0.058288  0.000000      6.000000
  0.108169 -0.062451  0.000000      6.000000
  0.115380 -0.066615  0.000000      6.000000
  0.122591 -0.070778  0.000000      6.000000
  0.129803 -0.074942  0.000000      6.000000
  0.137014 -0.079105  0.000000      6.000000
  0.144225 -0.083268  0.000000      6.000000
  0.151436 -0.087432  0.000000      6.000000
  0.158648 -0.091595  0.000000      6.000000
  0.165859 -0.095759  0.000000      6.000000
  0.173070 -0.099922  0.000000      3.000000
  0.014423 -0.000000  0.000000      6.000000
  0.021634 -0.004163  0.000000     12.000000
  0.028845 -0.008327  0.000000     12.000000
  0.036056 -0.012490  0.000000     12.000000
  0.043268 -0.016654  0.000000     12.000000
  0.050479 -0.020817  0.000000     12.000000
  0.057690 -0.024981  0.000000     12.000000
  0.064901 -0.029144  0.000000     12.000000
  0.072113 -0.033307  0.000000     12.000000
  0.079324 -0.037471  0.000000     12.000000
  0.086535 -0.041634  0.000000     12.000000
  0.093746 -0.045798  0.000000     12.000000
  0.100958 -0.049961  0.000000     12.000000
  0.108169 -0.054125  0.000000     12.000000
  0.115380 -0.058288  0.000000     12.000000
  0.122591 -0.062451  0.000000     12.000000
  0.129803 -0.066615  0.000000     12.000000
  0.137014 -0.070778  0.000000     12.000000
  0.144225 -0.074942  0.000000     12.000000
  0.151436 -0.079105  0.000000     12.000000
  0.158648 -0.083268  0.000000     12.000000
  0.165859 -0.087432  0.000000     12.000000
  0.173070 -0.091595  0.000000     12.000000
  0.028845  0.000000  0.000000      6.000000
  0.036056 -0.004163  0.000000     12.000000
  0.043268 -0.008327  0.000000     12.000000
  0.050479 -0.012490  0.000000     12.000000
  0.057690 -0.016654  0.000000     12.000000
  0.064901 -0.020817  0.000000     12.000000
  0.072113 -0.024981  0.000000     12.000000
  0.079324 -0.029144  0.000000     12.000000
  0.086535 -0.033307  0.000000     12.000000
  0.093746 -0.037471  0.000000     12.000000
  0.100958 -0.041634  0.000000     12.000000
  0.108169 -0.045798  0.000000     12.000000
[...]
 -0.144225  0.183191  0.000000     12.000000
 -0.137014  0.179027  0.000000     12.000000
 -0.129803  0.174864  0.000000      6.000000
 -0.158648  0.199844  0.000000      6.000000
 -0.151436  0.195681  0.000000     12.000000
 -0.144225  0.191517  0.000000     12.000000
 -0.137014  0.187354  0.000000     12.000000
 -0.129803  0.183191  0.000000     12.000000
 -0.144225  0.199844  0.000000      6.000000
 -0.137014  0.195681  0.000000     12.000000
 -0.129803  0.191517  0.000000     12.000000
 -0.122591  0.187354  0.000000      6.000000
 -0.129803  0.199844  0.000000      6.000000
 -0.122591  0.195681  0.000000     12.000000
 -0.115380  0.199844  0.000000      2.000000

 TETIRR: Found   1174 inequivalent tetrahedra from    13824

 SYSTEM =  Ag Slab
 POSCAR =  Ag(111) Slab

 Startparameter for this run:
   NWRITE =      2    write-flag & timer
   PREC   = accura    normal or accurate (medium, high low for compatibility)
   ISTART =      0    job   : 0-new  1-cont  2-samecut
   ICHARG =     11    charge: 1-file 2-atom 10-const
[...]
 k-point 37 :   0.2708 0.0208 0.0000  plane waves:    3334
 k-point 38 :   0.2917 0.0208 0.0000  plane waves:    3338
 k-point 39 :   0.3125 0.0208 0.0000  plane waves:    3337
 k-point 40 :   0.3333 0.0208 0.0000  plane waves:    3344
 k-point 41 :   0.3542 0.0208 0.0000  plane waves:    3345
 k-point 42 :   0.3750 0.0208 0.0000  plane waves:    3351
 k-point 43 :   0.3958 0.0208 0.0000  plane waves:    3360
 k-point 44 :   0.4167 0.0208 0.0000  plane waves:    3364
 k-point 45 :   0.4375 0.0208 0.0000  plane waves:    3366
 k-point 46 :   0.4583 0.0208 0.0000  plane waves:    3370
 k-point 47 :   0.4792 0.0208 0.0000  plane waves:    3364
 k-point 48 :   0.5000 0.0208 0.0000  plane waves:    3351
 k-point 49 :   0.0833 0.0417 0.0000  plane waves:    3377
 k-point 50 :   0.1042 0.0417 0.0000  plane waves:    3366
 k-point 51 :   0.1250 0.0417 0.0000  plane waves:    3365
 k-point 52 :   0.1458 0.0417 0.0000  plane waves:    3361
 k-point 53 :   0.1667 0.0417 0.0000  plane waves:    3351
 k-point 54 :   0.1875 0.0417 0.0000  plane waves:    3353
 k-point 55 :   0.2083 0.0417 0.0000  plane waves:    3347
 k-point 56 :   0.2292 0.0417 0.0000  plane waves:    3341
 k-point 57 :   0.2500 0.0417 0.0000  plane waves:    3338
 k-point 58 :   0.2708 0.0417 0.0000  plane waves:    3336
 k-point 59 :   0.2917 0.0417 0.0000  plane waves:    3336
 k-point 60 :   0.3125 0.0417 0.0000  plane waves:    3337
[...]
 k-point 85 :   0.4167 0.0625 0.0000  plane waves:    3361
 k-point 86 :   0.4375 0.0625 0.0000  plane waves:    3364
 k-point 87 :   0.4583 0.0625 0.0000  plane waves:    3362
 k-point 88 :   0.4792 0.0625 0.0000  plane waves:    3360
 k-point 89 :   0.5000 0.0625 0.0000  plane waves:    3356
 k-point 90 :  -0.4792 0.0625 0.0000  plane waves:    3351
 k-point 91 :   0.1667 0.0833 0.0000  plane waves:    3359
 k-point 92 :   0.1875 0.0833 0.0000  plane waves:    3363
 k-point 93 :   0.2083 0.0833 0.0000  plane waves:    3355
 k-point 94 :   0.2292 0.0833 0.0000  plane waves:    3349
 k-point 95 :   0.2500 0.0833 0.0000  plane waves:    3355
 k-point 96 :   0.2708 0.0833 0.0000  plane waves:    3345
 k-point 97 :   0.2917 0.0833 0.0000  plane waves:    3343
 k-point 98 :   0.3125 0.0833 0.0000  plane waves:    3326
 k-point 99 :   0.3333 0.0833 0.0000  plane waves:    3339
 k-point ** :   0.3542 0.0833 0.0000  plane waves:    3342
 k-point ** :   0.3750 0.0833 0.0000  plane waves:    3340
 k-point ** :   0.3958 0.0833 0.0000  plane waves:    3355
 k-point ** :   0.4167 0.0833 0.0000  plane waves:    3361
 k-point ** :   0.4375 0.0833 0.0000  plane waves:    3359
 k-point ** :   0.4583 0.0833 0.0000  plane waves:    3354
 k-point ** :   0.4792 0.0833 0.0000  plane waves:    3354
 k-point ** :   0.5000 0.0833 0.0000  plane waves:    3354
 k-point ** :  -0.4792 0.0833 0.0000  plane waves:    3349
 k-point ** :  -0.4583 0.0833 0.0000  plane waves:    3348
 k-point ** :   0.2083 0.1042 0.0000  plane waves:    3365
 k-point ** :   0.2292 0.1042 0.0000  plane waves:    3365
 k-point ** :   0.2500 0.1042 0.0000  plane waves:    3351
 k-point ** :   0.2708 0.1042 0.0000  plane waves:    3349
 k-point ** :   0.2917 0.1042 0.0000  plane waves:    3349
 k-point ** :   0.3125 0.1042 0.0000  plane waves:    3337
 k-point ** :   0.3333 0.1042 0.0000  plane waves:    3346
 k-point ** :   0.3542 0.1042 0.0000  plane waves:    3340
 k-point ** :   0.3750 0.1042 0.0000  plane waves:    3352
 k-point ** :   0.3958 0.1042 0.0000  plane waves:    3348
 k-point ** :   0.4167 0.1042 0.0000  plane waves:    3355
 k-point ** :   0.4375 0.1042 0.0000  plane waves:    3359
 k-point ** :   0.4583 0.1042 0.0000  plane waves:    3357
 k-point ** :   0.4792 0.1042 0.0000  plane waves:    3351
 k-point ** :   0.5000 0.1042 0.0000  plane waves:    3352
 k-point ** :  -0.4792 0.1042 0.0000  plane waves:    3339
 k-point ** :  -0.4583 0.1042 0.0000  plane waves:    3335
 k-point ** :   0.2500 0.1250 0.0000  plane waves:    3361
 k-point ** :   0.2708 0.1250 0.0000  plane waves:    3353
 k-point ** :   0.2917 0.1250 0.0000  plane waves:    3347
 k-point ** :   0.3125 0.1250 0.0000  plane waves:    3345
 k-point ** :   0.3333 0.1250 0.0000  plane waves:    3343
 k-point ** :   0.3542 0.1250 0.0000  plane waves:    3351
 k-point ** :   0.3750 0.1250 0.0000  plane waves:    3345
 k-point ** :   0.3958 0.1250 0.0000  plane waves:    3338
 k-point ** :   0.4167 0.1250 0.0000  plane waves:    3342
 k-point ** :   0.4375 0.1250 0.0000  plane waves:    3353
 k-point ** :   0.4583 0.1250 0.0000  plane waves:    3351
 k-point ** :   0.4792 0.1250 0.0000  plane waves:    3353
 k-point ** :   0.5000 0.1250 0.0000  plane waves:    3349
 k-point ** :  -0.4792 0.1250 0.0000  plane waves:    3342
 k-point ** :  -0.4583 0.1250 0.0000  plane waves:    3335
 k-point ** :  -0.4375 0.1250 0.0000  plane waves:    3344
 k-point ** :   0.2917 0.1458 0.0000  plane waves:    3349
 k-point ** :   0.3125 0.1458 0.0000  plane waves:    3347
 k-point ** :   0.3333 0.1458 0.0000  plane waves:    3345
 k-point ** :   0.3542 0.1458 0.0000  plane waves:    3355
 k-point ** :   0.3750 0.1458 0.0000  plane waves:    3357
 k-point ** :   0.3958 0.1458 0.0000  plane waves:    3353
 k-point ** :   0.4167 0.1458 0.0000  plane waves:    3343
 k-point ** :   0.4375 0.1458 0.0000  plane waves:    3346
 k-point ** :   0.4583 0.1458 0.0000  plane waves:    3355
 k-point ** :   0.4792 0.1458 0.0000  plane waves:    3349
 k-point ** :   0.5000 0.1458 0.0000  plane waves:    3345
 k-point ** :  -0.4792 0.1458 0.0000  plane waves:    3339
 k-point ** :  -0.4583 0.1458 0.0000  plane waves:    3331
 k-point ** :  -0.4375 0.1458 0.0000  plane waves:    3342
 k-point ** :   0.3333 0.1667 0.0000  plane waves:    3355
 k-point ** :   0.3542 0.1667 0.0000  plane waves:    3357
 k-point ** :   0.3750 0.1667 0.0000  plane waves:    3363
[...]
 k-point ** :  -0.4167 0.2500 0.0000  plane waves:    3318
 k-point ** :  -0.3958 0.2500 0.0000  plane waves:    3318
 k-point ** :  -0.3750 0.2500 0.0000  plane waves:    3316
 k-point ** :  -0.4583 0.2708 0.0000  plane waves:    3331
 k-point ** :  -0.4375 0.2708 0.0000  plane waves:    3320
 k-point ** :  -0.4167 0.2708 0.0000  plane waves:    3314
 k-point ** :  -0.3958 0.2708 0.0000  plane waves:    3316
 k-point ** :  -0.3750 0.2708 0.0000  plane waves:    3315
 k-point ** :  -0.4167 0.2917 0.0000  plane waves:    3319
 k-point ** :  -0.3958 0.2917 0.0000  plane waves:    3317
 k-point ** :  -0.3750 0.2917 0.0000  plane waves:    3318
 k-point ** :  -0.3542 0.2917 0.0000  plane waves:    3315
 k-point ** :  -0.3750 0.3125 0.0000  plane waves:    3325
 k-point ** :  -0.3542 0.3125 0.0000  plane waves:    3323
 k-point ** :  -0.3333 0.3333 0.0000  plane waves:    3327

 maximum and minimum number of plane-waves per node :      1702     1647

 maximum number of plane-waves:      3383
 maximum index in each direction:
   IXMAX=    5   IYMAX=    4   IZMAX=   41
   IXMIN=   -5   IYMIN=   -5   IZMIN=  -41

 parallel 3D FFT for wavefunctions:
    minimum data exchange during FFTs selected (reduces bandwidth)
 parallel 3D FFT for charge:
    minimum data exchange during FFTs selected (reduces bandwidth)

 initial charge density was supplied:
 number of electron      34.0000005 magnetization
 keeping initial charge density in first step

 Maximum index for augmentation-charges         1962 (set IRDMAX)

 First call to EWALD:  gamma=   0.311
 Maximum number of real-space cells 6x 6x 1
 Maximum number of reciprocal cells 2x 2x11

--------------------------------------- Iteration      1(   1)  ---------------------------------------

 BZINTS: Fermi energy:  6.202833; 34.000000 electrons
         Band energy:  -5.269928;  BLOECHL correction: -0.148139

 eigenvalue-minimisations  : 10500
 total energy-change (2. order) : 0.1629977E+03  (-0.1317197E+04)
 number of electron      34.0000005 magnetization
 augmentation part       34.0000005 magnetization

 Free energy of the ion-electron system (eV)
  alpha Z        PSCENC =        43.26155341
  Ewald energy   TEWEN  =     13258.89322997
  -Hartree energ DENC   =    -16358.16000792
  -exchange      EXHF   =         0.00000000
  -V(xc)+E(xc)   XCENC  =       -30.31979117
  PAW double counting   =      3371.48766536    -3241.14890322
  entropy T*S    EENTRO =         0.00000000
  eigenvalues    EBANDS =        -5.26992753
  atomic energy  EATOM  =      3124.25391779
  Solvation  Ediel_sol  =         0.00000000
  free energy    TOTEN  =       162.99773669 eV

  energy without entropy =      162.99773669  energy(sigma->0) =      162.99773669

[...]

 BZINTS: Fermi energy: -0.735683; 34.000000 electrons
         Band energy:-175.822794;  BLOECHL correction: -0.007622

 eigenvalue-minimisations  : 11952
 total energy-change (2. order) :-0.1705529E+03  (-0.1676852E+03)
 number of electron      34.0000005 magnetization
 augmentation part       34.0000005 magnetization

[...]

--------------------------------------- Iteration      1(   7)  ---------------------------------------

[...]

 eigenvalue-minimisations  : 11424
 total energy-change (2. order) :-0.5663242E-07  (-0.5651219E-07)
 number of electron      34.0000005 magnetization
 augmentation part       34.0000005 magnetization

 Free energy of the ion-electron system (eV)
  alpha Z        PSCENC =        43.26155341
  Ewald energy   TEWEN  =     13258.89322997
  -Hartree energ DENC   =    -16358.16000792
  -exchange      EXHF   =         0.00000000
  -V(xc)+E(xc)   XCENC  =       -30.31979117
  PAW double counting   =      3371.48766536    -3241.14890322
  entropy T*S    EENTRO =         0.00000000
  eigenvalues    EBANDS =      -178.88021480
  atomic energy  EATOM  =      3124.25391779
  Solvation  Ediel_sol  =         0.00000000
  free energy    TOTEN  =       -10.61255057 eV

  energy without entropy =      -10.61255057  energy(sigma->0) =      -10.61255057

 average (electrostatic) potential at core
  the test charge radii are     1.1249  0.5201
  (the norm of the test charge is              1.0000)
       1 -80.3758       2 -80.0812       3 -79.8653       4 -37.9197

 E-fermi :  -0.8661     XC(G=0):  -4.1831     alpha+bet : -3.8877

 k-point     1 :       0.0000    0.0000    0.0000
  band No.  band energies     occupation
      1      -9.3226      2.00000
      2      -7.7632      2.00000
      3      -7.0274      2.00000
      4      -5.9036      2.00000
      5      -5.9036      2.00000
      6      -5.8198      2.00000
      7      -5.5999      2.00000
      8      -5.5999      2.00000
      9      -5.4700      2.00000
     10      -5.3544      2.00000
     11      -5.3544      2.00000
     12      -4.7935      2.00000
     13      -4.7935      2.00000
     14      -4.5142      2.00000
     15      -4.5142      2.00000
     16      -4.0437      2.00000
     17      -4.0437      2.00000
     18      -3.8318      2.00000
     19      -1.1780      2.00000
     20       3.1510      0.00000
     21       3.5284      0.00000
     22       3.9226      0.00000
     23       4.8152      0.00000
     24       5.0205      0.00000

[...]

 k-point   217 :      -0.3333    0.3333    0.0000
  band No.  band energies     occupation
      1      -7.7591      2.00000
      2      -6.3935      2.00000
      3      -6.3933      2.00000
      4      -6.3329      2.00000
      5      -5.9435      2.00000
      6      -5.9237      2.00000
      7      -5.7259      2.00000
      8      -5.6327      2.00000
      9      -5.2001      2.00000
     10      -5.1942      2.00000
     11      -4.9515      2.00000
     12      -4.7203      2.00000
     13      -4.4106      2.00000
     14      -4.1341      2.00000
     15      -4.0969      2.00000
     16      -0.1578      0.00000
     17       2.6078      0.00000
     18       2.6713      0.00000
     19       3.1887      0.00000
     20       3.5436      0.00000
     21       4.1489      0.00000
     22       5.5029      0.00000
     23       5.7167      0.00000
     24       6.8177      0.00000

 soft charge-density along one line, spin component           1
         0         1         2         3         4         5         6         7         8         9
 total charge-density along one line

------------------------ aborting loop because EDIFF is reached ----------------------------------------

 total charge

# of ion       s       p       d       tot
    1        0.400   0.405   9.135   9.940
    2        0.421   0.276   9.170   9.866
    3        0.428   0.221   9.177   9.826
    4        0.501   0.017   0.000   0.518
tot          1.750   0.919  27.482  30.150

         DFTD3 V3.0 Rev 1
 IVDW         = 11
 DF pbe
 parameters
 VDW_S6       =    1.0000
 VDW_S8       =    0.7220
 VDW_SR       =    1.2170
 rs18     =    1.0000
 alpha6   =   14.0000
 alpha8   =   16.0000
 k1-k3    =   16.0000    1.3333   -4.0000
 VDW_RADIUS   =   50.2022 A
 VDW_CNRADIUS =   21.1671 A
 Edisp (eV)   -1.02183

 E6    (eV) :    -0.4267
 E8    (eV) :    -0.5952
 % E8        : 58.24

  FORCE on cell =-STRESS in cart. coord.  units (eV):
  Direction    XX          YY          ZZ          XY          YZ          ZX
  Alpha Z    43.26155    43.26155    43.26155
  Ewald   15223.46402 15223.46402-17188.03474    -0.00000     0.00000     0.00000
  Hartree 15975.54920 15975.54920-15592.91550     0.00000    -0.00000    -0.00000
  E(xc)    -176.95358  -176.95358  -177.77777     0.00000    -0.00000    -0.00000
  Local  -31730.72797-31730.72792 32243.31402    -0.00005     0.00000     0.00000
  n-local   -28.50265   -22.25800   -26.29164     3.96016     0.81839    -0.04281
  augment   275.74510   275.74505   277.53186     0.00004     0.00000     0.00000
  Kinetic   421.45390   410.95406   421.38722    -2.69146    -1.31561     1.16759
  Fock        0.00000     0.00000     0.00000     0.00000     0.00000     0.00000
  vdW        -1.20582    -1.20582    -0.61339    -0.00000    -0.00000    -0.00000
  Total      -0.04384    -0.04384    -0.13839     0.00000     0.00000     0.00000
  in kB      -0.38126    -0.38126    -1.20357     0.00000     0.00000     0.00000

 VOLUME and BASIS-vectors are now :
  energy-cutoff  :      400.00
  volume of cell :      184.23
      direct lattice vectors                 reciprocal lattice vectors
     2.889000000  0.000000000  0.000000000     0.346140533 -0.199844330  0.000000000
     1.444500000  2.501947392  0.000000000     0.000000000  0.399688660  0.000000000
     0.000000000  0.000000000 25.487717245     0.000000000  0.000000000  0.039234585

  length of vectors
     2.889000000  2.889000000 25.487717245     0.399688660  0.399688660  0.039234585

 FORCES acting on ions
    electron-ion (+dipol)            ewald-force                    non-local-force                 convergence-correction
   -.659E-07 -.380E-07 0.206E+04   -.940E-12 -.587E-12 -.206E+04   -.417E-16 -.535E-16 0.119E+01   0.102E-04 0.590E-05 -.894E-01
   -.121E-06 -.696E-07 -.948E+02   -.168E-11 -.982E-12 0.946E+02   0.110E-18 0.491E-18 0.404E+00   0.150E-02 0.864E-03 -.151E+00
   0.182E-06 0.105E-06 -.224E+04   0.124E-11 0.694E-12 0.224E+04   -.620E-17 -.115E-17 0.163E+01   -.150E-02 -.864E-03 -.428E-01
   -.176E-07 -.101E-07 0.270E+03   0.150E-11 0.876E-12 -.271E+03   0.153E-17 0.293E-18 0.109E+01   -.554E-05 -.320E-05 -.214E-02
   -.224E-07 -.129E-07 -.403E+01   0.121E-12 0.106E-14 -.171E-12   -.462E-16 -.539E-16 0.431E+01   0.559E-05 0.323E-05 -.286E+00

 POSITION                                       TOTAL-FORCE (eV/Angst)
      0.00000      0.00000      0.00000         0.000000      0.000000      0.002870
      1.44450      0.83398      2.44715         0.000000     -0.000000     -0.025294
      2.88900      1.66796      4.81348        -0.000000     -0.000000      0.026690
      2.88900      1.66796     24.64621         0.000000      0.000000     -0.004267
    total drift:                                0.000006      0.000003      0.000678

  FREE ENERGIE OF THE ION-ELECTRON SYSTEM (eV)
  free  energy   TOTEN  =       -11.63438059 eV

  energy  without entropy=      -11.63438059  energy(sigma->0) =      -11.63438059

 stress matrix after NEB project (eV)
     -0.04384      0.00000      0.00000
      0.00000     -0.04384      0.00000
      0.00000      0.00000     -0.13839
  FORCES: max atom, RMS     0.026690    0.018509
  FORCE total and by dimension    0.037018    0.026690
  Stress total and by dimension    0.151647    0.138394

 total charge

# of ion       s       p       d       tot
    1        0.400   0.405   9.135   9.940
    2        0.421   0.276   9.170   9.866
    3        0.428   0.221   9.177   9.826
    4        0.501   0.017   0.000   0.518
tot          1.750   0.919  27.482  30.150

 BZINTS: Fermi energy: -0.866136; 34.000000 electrons
         Band energy:-178.880215;  BLOECHL correction: -0.006762